assets/logs/7_12x12_clingo/7_12x12_clingo.solution.log

-------------------------------------------------
|114| 88|118|104|115| 92| 50|100| 62| 96| 46|  4|
-------------------------------------------------
|120|106|112| 90| 52|102|113| 94| 48|  2| 40|  0|
-------------------------------------------------
| 86|116|122| 37|110|117| 54| 60| 98| 64|  6| 44|
-------------------------------------------------
|124| 35|108|  3| 56| 39| 68|111| 72| 42|  0| 38|
-------------------------------------------------
|  7| 84|126| 33|119|  1| 58|  0| 66|109|  0|  8|
-------------------------------------------------
|128| 31|  5| 11| 41| 59|  0| 70| 28| 74| 36|107|
-------------------------------------------------
|  0|  9| 82|132| 63|121| 26| 76| 34| 85| 10|  0|
-------------------------------------------------
| 29|130| 13| 43| 57| 78| 61| 30| 24| 14|105| 87|
-------------------------------------------------
| 15| 21|127| 80|123| 65| 22| 73|103| 32| 83| 12|
-------------------------------------------------
|129| 27| 45| 19|  0| 55|101| 67| 16| 95| 89| 79|
-------------------------------------------------
| 47| 17| 23|125| 51| 20| 71| 97| 75| 81|  0| 93|
-------------------------------------------------
| 25|131| 49|  0|  0| 99| 53| 18| 69| 91| 77|  0|
-------------------------------------------------

| n = 12 | k = 6 | coverage = 137, 95.13888888888889%
 Time 300.003
 Name 7_12x12_clingo

