assets/logs/7_12x12_clingo/7_12x12_clingo.log
clingo version 5.4.0
Reading from ...ts/logs/7_12x12_clingo/knights_tour.lp ...
Solving...
Answer: 1
occ(1,11,11) occ(1,10,5) occ(1,5,8) occ(1,6,7) occ(1,7,1) occ(1,4,11) occ(2,5,6) occ(3,2,10) coverage(6)
Optimization: -6
Answer: 2
occ(1,11,11) occ(1,10,5) occ(1,5,8) occ(1,6,7) occ(1,7,1) occ(1,4,11) occ(2,5,6) occ(3,2,10) coverage(33) occ(30,1,6) occ(56,1,7) occ(60,1,5) occ(64,1,9) occ(102,1,4) occ(17,2,3) occ(26,2,5) occ(32,2,8) occ(54,2,9) occ(62,2,7) occ(66,2,11) occ(100,2,2) occ(104,2,6) occ(5,3,12) occ(19,3,1) occ(28,3,7) occ(58,3,6) occ(9,4,9) occ(15,4,4) occ(24,4,6) occ(34,4,7) occ(52,4,10) occ(68,4,12) occ(98,4,3) occ(106,4,5) occ(7,5,11) occ(11,5,7) occ(21,5,2) occ(22,5,4) occ(70,5,10) occ(92,5,5) occ(96,5,1) occ(108,5,3) occ(6,6,9) occ(13,6,5) occ(20,6,2) occ(36,6,6) occ(50,6,11) occ(72,6,12) occ(94,6,3) occ(110,6,1) occ(4,7,7) occ(23,7,3) occ(48,7,9) occ(90,7,6) occ(8,8,10) occ(12,8,6) occ(18,8,1) occ(38,8,7) occ(74,8,11) occ(112,8,2) occ(126,8,3) occ(10,9,8) occ(14,9,4) occ(25,9,2) occ(46,9,10) occ(88,9,7) occ(122,9,6) occ(128,9,1) occ(132,9,5) occ(136,9,9) occ(16,10,2) occ(40,10,8) occ(76,10,12) occ(80,10,10) occ(86,10,9) occ(114,10,1) occ(124,10,4) occ(130,10,3) occ(134,10,7) occ(138,10,11) occ(27,11,1) occ(31,11,5) occ(44,11,9) occ(82,11,12) occ(116,11,3) occ(120,11,7) occ(29,12,3) occ(42,12,7) occ(78,12,11) occ(84,12,10) occ(118,12,5) occ(140,12,12)
Optimization: -33
Answer: 3
occ(1,11,11) occ(1,10,5) occ(1,5,8) occ(1,6,7) occ(1,7,1) occ(1,4,11) occ(2,5,6) occ(3,2,10) coverage(100) occ(8,1,9) occ(14,1,4) occ(33,1,6) occ(41,1,10) occ(80,1,3) occ(86,1,2) occ(92,1,5) occ(10,2,7) occ(16,2,2) occ(29,2,9) occ(35,2,8) occ(48,2,6) occ(78,2,1) occ(82,2,5) occ(88,2,4) occ(94,2,3) occ(5,3,12) occ(6,3,10) occ(12,3,5) occ(30,3,2) occ(31,3,7) occ(39,3,11) occ(43,3,9) occ(50,3,8) occ(54,3,4) occ(84,3,3) occ(90,3,6) occ(96,3,1) occ(4,4,8) occ(18,4,1) occ(27,4,10) occ(28,4,4) occ(37,4,9) occ(38,4,5) occ(46,4,7) occ(52,4,6) occ(76,4,2) occ(98,4,3) occ(7,5,11) occ(11,5,7) occ(32,5,1) occ(44,5,9) occ(45,5,10) occ(56,5,5) occ(72,5,3) occ(9,6,9) occ(13,6,5) occ(20,6,2) occ(25,6,11) occ(26,6,3) occ(36,6,4) occ(40,6,6) occ(47,6,8) occ(74,6,1) occ(15,7,7) occ(24,7,5) occ(34,7,2) occ(42,7,8) occ(58,7,6) occ(62,7,10) occ(67,7,9) occ(70,7,4) occ(83,7,3) occ(19,8,10) occ(22,8,3) occ(23,8,12) occ(49,8,9) occ(59,8,4) occ(60,8,8) occ(65,8,7) occ(68,8,6) occ(69,8,11) occ(85,8,1) occ(101,8,5) occ(17,9,8) occ(57,9,6) occ(63,9,5) occ(64,9,9) occ(81,9,4) occ(93,9,2) occ(99,9,3) occ(21,10,11) occ(51,10,10) occ(61,10,3) occ(66,10,7) occ(71,10,12) occ(87,10,2) occ(95,10,4) occ(103,10,6) occ(55,11,7) occ(75,11,9) occ(79,11,5) occ(91,11,1) occ(97,11,2) occ(107,11,3) occ(53,12,9) occ(73,12,11) occ(77,12,7) occ(89,12,3) occ(105,12,5) occ(109,12,1)
Optimization: -100
Answer: 4
occ(1,11,11) occ(1,10,5) occ(1,5,8) occ(1,6,7) occ(1,7,1) occ(1,4,11) occ(2,5,6) occ(3,2,10) coverage(111) occ(33,1,6) occ(37,1,10) occ(41,1,8) occ(76,1,5) occ(80,1,3) occ(84,1,7) occ(90,1,2) occ(25,2,11) occ(29,2,9) occ(35,2,8) occ(43,2,6) occ(74,2,3) occ(82,2,5) occ(88,2,4) occ(5,3,12) occ(6,3,2) occ(31,3,7) occ(39,3,9) occ(50,3,8) occ(72,3,5) occ(78,3,4) occ(86,3,6) occ(92,3,3) occ(96,3,1) occ(4,4,4) occ(10,4,1) occ(23,4,12) occ(27,4,10) occ(45,4,5) occ(46,4,9) occ(70,4,7) occ(75,4,6) occ(79,4,2) occ(98,4,3) occ(7,5,11) occ(8,5,3) occ(21,5,10) occ(48,5,7) occ(52,5,9) occ(77,5,4) occ(94,5,2) occ(100,5,5) occ(9,6,9) occ(12,6,2) occ(15,6,10) occ(26,6,3) occ(44,6,8) occ(47,6,4) occ(54,6,11) occ(68,6,6) occ(73,6,5) occ(81,6,1) occ(13,7,12) occ(14,7,4) occ(19,7,11) occ(28,7,5) occ(49,7,2) occ(62,7,10) occ(66,7,8) occ(67,7,9) occ(71,7,7) occ(83,7,3) occ(102,7,6) occ(11,8,10) occ(16,8,6) occ(17,8,9) occ(24,8,2) occ(30,8,3) occ(42,8,7) occ(51,8,4) occ(56,8,12) occ(60,8,8) occ(65,8,11) occ(85,8,1) occ(20,9,5) occ(53,9,2) occ(57,9,6) occ(58,9,10) occ(64,9,9) occ(69,9,8) occ(87,9,3) occ(99,9,11) occ(104,9,7) occ(114,9,4) occ(18,10,7) occ(22,10,3) occ(32,10,2) occ(40,10,6) occ(55,10,4) occ(63,10,10) occ(101,10,9) occ(108,10,8) occ(109,10,11) occ(36,11,3) occ(59,11,7) occ(89,11,4) occ(93,11,8) occ(97,11,12) occ(105,11,10) occ(106,11,6) occ(112,11,5) occ(34,12,1) occ(38,12,5) occ(61,12,9) occ(91,12,6) occ(95,12,10) occ(103,12,8) occ(107,12,12) occ(110,12,7)
Optimization: -111
Answer: 5
occ(1,11,11) occ(1,10,5) occ(1,5,8) occ(1,6,7) occ(1,7,1) occ(1,4,11) occ(2,5,6) occ(3,2,10) coverage(116) occ(7,1,11) occ(13,1,10) occ(19,1,9) occ(33,1,6) occ(45,1,4) occ(76,1,5) occ(80,1,3) occ(84,1,7) occ(90,1,2) occ(11,2,12) occ(17,2,7) occ(21,2,11) occ(29,2,9) occ(35,2,8) occ(43,2,6) occ(47,2,2) occ(74,2,3) occ(82,2,5) occ(88,2,4) occ(5,3,12) occ(9,3,10) occ(15,3,9) occ(31,3,7) occ(72,3,5) occ(77,3,8) occ(78,3,4) occ(86,3,6) occ(92,3,3) occ(96,3,1) occ(4,4,8) occ(23,4,12) occ(27,4,10) occ(37,4,7) occ(41,4,5) occ(46,4,9) occ(49,4,1) occ(75,4,6) occ(98,4,3) occ(6,5,10) occ(52,5,11) occ(70,5,4) occ(79,5,9) occ(94,5,2) occ(100,5,5) occ(10,6,9) occ(25,6,11) occ(26,6,3) occ(39,6,6) occ(44,6,8) occ(48,6,10) occ(51,6,2) occ(73,6,5) occ(103,6,4) occ(8,7,11) occ(24,7,5) occ(30,7,4) occ(50,7,12) occ(54,7,10) occ(60,7,9) occ(68,7,3) occ(81,7,8) occ(99,7,7) occ(102,7,6) occ(105,7,2) occ(12,8,10) occ(22,8,3) occ(28,8,2) occ(42,8,7) occ(53,8,1) occ(56,8,12) occ(64,8,6) occ(71,8,4) occ(85,8,11) occ(97,8,9) occ(101,8,5) occ(20,9,5) occ(32,9,3) occ(58,9,10) occ(62,9,8) occ(66,9,4) occ(69,9,2) occ(83,9,9) occ(95,9,11) occ(104,9,7) occ(107,9,1) occ(114,9,6) occ(14,10,11) occ(18,10,7) occ(40,10,6) occ(55,10,2) occ(63,10,4) occ(87,10,12) occ(93,10,9) occ(108,10,8) occ(113,10,3) occ(16,11,9) occ(34,11,4) occ(38,11,8) occ(59,11,3) occ(67,11,1) occ(89,11,10) occ(106,11,6) occ(109,11,2) occ(112,11,5) occ(36,12,6) occ(57,12,1) occ(61,12,5) occ(65,12,3) occ(91,12,8) occ(110,12,7) occ(111,12,4) occ(115,12,2)
Optimization: -116
Answer: 6
occ(1,11,11) occ(1,10,5) occ(1,5,8) occ(1,6,7) occ(1,7,1) occ(1,4,11) occ(2,5,6) occ(3,2,10) coverage(117) occ(7,1,11) occ(13,1,10) occ(19,1,9) occ(33,1,6) occ(45,1,4) occ(76,1,5) occ(80,1,3) occ(84,1,7) occ(90,1,2) occ(11,2,12) occ(17,2,7) occ(21,2,11) occ(29,2,9) occ(35,2,8) occ(43,2,6) occ(47,2,2) occ(74,2,3) occ(82,2,5) occ(88,2,4) occ(5,3,12) occ(9,3,10) occ(15,3,9) occ(31,3,7) occ(72,3,5) occ(77,3,8) occ(78,3,4) occ(86,3,6) occ(92,3,3) occ(96,3,1) occ(4,4,8) occ(23,4,12) occ(27,4,10) occ(37,4,7) occ(41,4,5) occ(46,4,9) occ(49,4,1) occ(75,4,6) occ(98,4,3) occ(6,5,10) occ(52,5,11) occ(70,5,4) occ(79,5,9) occ(94,5,2) occ(100,5,5) occ(10,6,9) occ(25,6,11) occ(26,6,3) occ(39,6,6) occ(44,6,8) occ(48,6,10) occ(51,6,2) occ(73,6,5) occ(103,6,4) occ(8,7,11) occ(24,7,5) occ(30,7,4) occ(50,7,12) occ(54,7,10) occ(60,7,9) occ(68,7,3) occ(81,7,8) occ(99,7,7) occ(102,7,6) occ(105,7,2) occ(12,8,10) occ(22,8,3) occ(28,8,2) occ(42,8,7) occ(53,8,1) occ(56,8,12) occ(64,8,6) occ(71,8,4) occ(85,8,11) occ(97,8,9) occ(101,8,5) occ(116,8,8) occ(20,9,5) occ(32,9,3) occ(58,9,10) occ(62,9,8) occ(66,9,4) occ(69,9,2) occ(83,9,9) occ(95,9,11) occ(104,9,7) occ(107,9,1) occ(114,9,6) occ(14,10,11) occ(18,10,7) occ(40,10,6) occ(55,10,2) occ(63,10,4) occ(87,10,12) occ(93,10,9) occ(108,10,8) occ(113,10,3) occ(16,11,9) occ(34,11,4) occ(38,11,8) occ(59,11,3) occ(67,11,1) occ(89,11,10) occ(106,11,6) occ(109,11,2) occ(112,11,5) occ(36,12,6) occ(57,12,1) occ(61,12,5) occ(65,12,3) occ(91,12,8) occ(110,12,7) occ(111,12,4) occ(115,12,2)
Optimization: -117
Answer: 7
occ(1,11,11) occ(1,10,5) occ(1,5,8) occ(1,6,7) occ(1,7,1) occ(1,4,11) occ(2,5,6) occ(3,2,10) coverage(118) occ(14,1,6) occ(15,1,7) occ(18,1,2) occ(60,1,9) occ(100,1,3) occ(108,1,5) occ(11,2,8) occ(16,2,4) occ(17,2,9) occ(24,2,2) occ(54,2,5) occ(58,2,7) occ(62,2,11) occ(102,2,1) occ(110,2,3) occ(5,3,8) occ(8,3,9) occ(9,3,10) occ(12,3,5) occ(13,3,6) occ(19,3,11) occ(20,3,1) occ(36,3,7) occ(52,3,3) occ(69,3,12) occ(98,3,2) occ(106,3,4) occ(4,4,8) occ(10,4,7) occ(22,4,3) occ(26,4,1) occ(34,4,5) occ(38,4,9) occ(56,4,6) occ(64,4,12) occ(71,4,10) occ(104,4,2) occ(112,4,4) occ(6,5,10) occ(7,5,9) occ(21,5,12) occ(32,5,3) occ(40,5,7) occ(50,5,4) occ(67,5,11) occ(96,5,1) occ(114,5,2) occ(23,6,10) occ(27,6,6) occ(28,6,2) occ(44,6,8) occ(55,6,12) occ(66,6,11) occ(73,6,9) occ(77,6,5) occ(94,6,3) occ(116,6,4) occ(25,7,8) occ(30,7,4) occ(42,7,6) occ(48,7,5) occ(57,7,10) occ(65,7,12) occ(75,7,7) occ(87,7,11) occ(29,8,5) occ(43,8,10) occ(46,8,7) occ(53,8,11) occ(68,8,12) occ(72,8,8) occ(79,8,6) occ(80,8,4) occ(89,8,9) occ(92,8,2) occ(109,8,3) occ(31,9,7) occ(59,9,9) occ(63,9,11) occ(70,9,10) occ(76,9,5) occ(81,9,8) occ(82,9,6) occ(85,9,12) occ(86,9,4) occ(103,9,3) occ(107,9,1) occ(117,9,2) occ(35,10,4) occ(41,10,9) occ(45,10,11) occ(51,10,12) occ(74,10,7) occ(78,10,3) occ(83,10,10) occ(90,10,1) occ(91,10,8) occ(95,10,6) occ(111,10,2) occ(33,11,6) occ(39,11,7) occ(47,11,9) occ(61,11,10) occ(84,11,5) occ(88,11,3) occ(97,11,8) occ(101,11,4) occ(105,11,2) occ(115,11,1) occ(37,12,5) occ(49,12,11) occ(93,12,7) occ(99,12,6) occ(113,12,3)
Optimization: -118
Answer: 8
occ(1,11,11) occ(1,10,5) occ(1,5,8) occ(1,6,7) occ(1,7,1) occ(1,4,11) occ(2,5,6) occ(3,2,10) coverage(119) occ(14,1,6) occ(15,1,7) occ(18,1,2) occ(60,1,9) occ(100,1,3) occ(108,1,5) occ(11,2,8) occ(16,2,4) occ(17,2,9) occ(24,2,2) occ(54,2,5) occ(58,2,7) occ(62,2,11) occ(102,2,1) occ(110,2,3) occ(5,3,8) occ(8,3,9) occ(9,3,10) occ(12,3,5) occ(13,3,6) occ(19,3,11) occ(20,3,1) occ(36,3,7) occ(52,3,3) occ(69,3,12) occ(98,3,2) occ(106,3,4) occ(4,4,8) occ(10,4,7) occ(22,4,3) occ(26,4,1) occ(34,4,5) occ(38,4,9) occ(56,4,6) occ(64,4,12) occ(71,4,10) occ(104,4,2) occ(112,4,4) occ(6,5,10) occ(7,5,9) occ(21,5,12) occ(32,5,3) occ(40,5,7) occ(50,5,4) occ(67,5,11) occ(96,5,1) occ(114,5,2) occ(23,6,10) occ(27,6,6) occ(28,6,2) occ(44,6,8) occ(55,6,12) occ(66,6,11) occ(73,6,9) occ(77,6,5) occ(94,6,3) occ(116,6,4) occ(25,7,8) occ(30,7,4) occ(42,7,6) occ(48,7,5) occ(57,7,10) occ(65,7,12) occ(75,7,7) occ(87,7,11) occ(118,7,2) occ(29,8,5) occ(43,8,10) occ(46,8,7) occ(53,8,11) occ(68,8,12) occ(72,8,8) occ(79,8,6) occ(80,8,4) occ(89,8,9) occ(92,8,2) occ(109,8,3) occ(31,9,7) occ(59,9,9) occ(63,9,11) occ(70,9,10) occ(76,9,5) occ(81,9,8) occ(82,9,6) occ(85,9,12) occ(86,9,4) occ(103,9,3) occ(107,9,1) occ(117,9,2) occ(35,10,4) occ(41,10,9) occ(45,10,11) occ(51,10,12) occ(74,10,7) occ(78,10,3) occ(83,10,10) occ(90,10,1) occ(91,10,8) occ(95,10,6) occ(111,10,2) occ(33,11,6) occ(39,11,7) occ(47,11,9) occ(61,11,10) occ(84,11,5) occ(88,11,3) occ(97,11,8) occ(101,11,4) occ(105,11,2) occ(115,11,1) occ(37,12,5) occ(49,12,11) occ(93,12,7) occ(99,12,6) occ(113,12,3)
Optimization: -119
Answer: 9
occ(1,11,11) occ(1,10,5) occ(1,5,8) occ(1,6,7) occ(1,7,1) occ(1,4,11) occ(2,5,6) occ(3,2,10) coverage(128) occ(5,1,8) occ(8,1,9) occ(12,1,5) occ(18,1,2) occ(19,1,11) occ(32,1,3) occ(65,1,10) occ(69,1,6) occ(73,1,4) occ(10,2,7) occ(14,2,3) occ(17,2,9) occ(20,2,4) occ(24,2,2) occ(30,2,5) occ(67,2,8) occ(75,2,6) occ(6,3,10) occ(7,3,9) occ(15,3,7) occ(16,3,1) occ(21,3,12) occ(28,3,3) occ(34,3,2) occ(38,3,4) occ(42,3,6) occ(63,3,11) occ(71,3,5) occ(77,3,8) occ(4,4,8) occ(9,4,7) occ(13,4,5) occ(22,4,3) occ(23,4,10) occ(26,4,1) occ(46,4,9) occ(79,4,6) occ(83,4,4) occ(104,4,2) occ(36,5,3) occ(40,5,5) occ(44,5,7) occ(45,5,10) occ(61,5,12) occ(85,5,2) occ(106,5,4) occ(11,6,6) occ(25,6,9) occ(31,6,4) occ(43,6,12) occ(47,6,8) occ(48,6,10) occ(53,6,11) occ(81,6,5) occ(89,6,1) occ(102,6,3) occ(115,6,2) occ(29,7,6) occ(37,7,8) occ(49,7,10) occ(50,7,12) occ(56,7,7) occ(59,7,11) occ(72,7,9) occ(87,7,3) occ(108,7,5) occ(113,7,4) occ(126,7,2) occ(27,8,8) occ(33,8,5) occ(41,8,11) occ(51,8,12) occ(54,8,9) occ(55,8,10) occ(74,8,7) occ(91,8,2) occ(100,8,4) occ(111,8,6) occ(117,8,3) occ(121,8,1) occ(35,9,7) occ(39,9,9) occ(52,9,11) occ(57,9,12) occ(58,9,8) occ(70,9,10) occ(76,9,5) occ(97,9,2) occ(98,9,6) occ(110,9,4) occ(123,9,3) occ(124,9,1) occ(60,10,6) occ(68,10,12) occ(84,10,10) occ(90,10,11) occ(93,10,3) occ(96,10,8) occ(105,10,9) occ(109,10,7) occ(116,10,4) occ(119,10,2) occ(125,10,1) occ(64,11,9) occ(78,11,4) occ(82,11,8) occ(86,11,12) occ(94,11,10) occ(95,11,1) occ(99,11,3) occ(103,11,7) occ(112,11,5) occ(118,11,6) occ(122,11,2) occ(62,12,7) occ(66,12,11) occ(80,12,6) occ(88,12,10) occ(92,12,12) occ(101,12,5) occ(107,12,8) occ(114,12,3) occ(120,12,4) occ(127,12,2)
Optimization: -128
Answer: 10
occ(1,11,11) occ(1,10,5) occ(1,5,8) occ(1,6,7) occ(1,7,1) occ(1,4,11) occ(2,5,6) occ(3,2,10) coverage(129) occ(5,1,8) occ(8,1,9) occ(12,1,5) occ(18,1,2) occ(19,1,11) occ(32,1,3) occ(65,1,10) occ(69,1,6) occ(73,1,4) occ(10,2,7) occ(14,2,3) occ(17,2,9) occ(20,2,4) occ(24,2,2) occ(30,2,5) occ(67,2,8) occ(75,2,6) occ(6,3,10) occ(7,3,9) occ(15,3,7) occ(16,3,1) occ(21,3,12) occ(28,3,3) occ(34,3,2) occ(38,3,4) occ(42,3,6) occ(63,3,11) occ(71,3,5) occ(77,3,8) occ(4,4,8) occ(9,4,7) occ(13,4,5) occ(22,4,3) occ(23,4,10) occ(26,4,1) occ(46,4,9) occ(79,4,6) occ(83,4,4) occ(104,4,2) occ(36,5,3) occ(40,5,5) occ(44,5,7) occ(45,5,10) occ(61,5,12) occ(85,5,2) occ(106,5,4) occ(128,5,1) occ(11,6,6) occ(25,6,9) occ(31,6,4) occ(43,6,12) occ(47,6,8) occ(48,6,10) occ(53,6,11) occ(81,6,5) occ(89,6,1) occ(102,6,3) occ(115,6,2) occ(29,7,6) occ(37,7,8) occ(49,7,10) occ(50,7,12) occ(56,7,7) occ(59,7,11) occ(72,7,9) occ(87,7,3) occ(108,7,5) occ(113,7,4) occ(126,7,2) occ(27,8,8) occ(33,8,5) occ(41,8,11) occ(51,8,12) occ(54,8,9) occ(55,8,10) occ(74,8,7) occ(91,8,2) occ(100,8,4) occ(111,8,6) occ(117,8,3) occ(121,8,1) occ(35,9,7) occ(39,9,9) occ(52,9,11) occ(57,9,12) occ(58,9,8) occ(70,9,10) occ(76,9,5) occ(97,9,2) occ(98,9,6) occ(110,9,4) occ(123,9,3) occ(124,9,1) occ(60,10,6) occ(68,10,12) occ(84,10,10) occ(90,10,11) occ(93,10,3) occ(96,10,8) occ(105,10,9) occ(109,10,7) occ(116,10,4) occ(119,10,2) occ(125,10,1) occ(64,11,9) occ(78,11,4) occ(82,11,8) occ(86,11,12) occ(94,11,10) occ(95,11,1) occ(99,11,3) occ(103,11,7) occ(112,11,5) occ(118,11,6) occ(122,11,2) occ(62,12,7) occ(66,12,11) occ(80,12,6) occ(88,12,10) occ(92,12,12) occ(101,12,5) occ(107,12,8) occ(114,12,3) occ(120,12,4) occ(127,12,2)
Optimization: -129
Answer: 11
occ(1,11,11) occ(1,10,5) occ(1,5,8) occ(1,6,7) occ(1,7,1) occ(1,4,11) occ(2,5,6) occ(3,2,10) coverage(130) occ(7,1,11) occ(45,1,4) occ(49,1,8) occ(53,1,6) occ(57,1,10) occ(67,1,7) occ(71,1,9) occ(79,1,5) occ(85,1,2) occ(91,1,3) occ(27,2,4) occ(43,2,2) occ(47,2,6) occ(55,2,8) occ(61,2,11) occ(65,2,9) occ(73,2,7) occ(81,2,3) occ(89,2,1) occ(5,3,12) occ(9,3,10) occ(15,3,5) occ(25,3,2) occ(32,3,11) occ(51,3,7) occ(59,3,9) occ(69,3,8) occ(77,3,6) occ(83,3,1) occ(87,3,3) occ(93,3,4) occ(4,4,4) occ(13,4,7) occ(17,4,3) occ(29,4,5) occ(30,4,9) occ(41,4,1) occ(60,4,6) occ(63,4,10) occ(75,4,8) occ(95,4,2) occ(6,5,2) occ(11,5,9) occ(19,5,5) occ(23,5,1) occ(24,5,11) occ(28,5,7) occ(31,5,3) occ(34,5,12) occ(62,5,4) occ(102,5,10) occ(8,6,4) occ(20,6,10) occ(21,6,3) occ(26,6,9) occ(39,6,2) occ(58,6,5) occ(88,6,6) occ(97,6,1) occ(98,6,11) occ(104,6,12) occ(108,6,8) occ(10,7,6) occ(22,7,12) occ(33,7,2) occ(36,7,11) occ(64,7,5) occ(86,7,4) occ(94,7,8) occ(99,7,3) occ(100,7,9) occ(106,7,10) occ(112,7,7) occ(12,8,8) occ(18,8,11) occ(37,8,3) occ(56,8,4) occ(66,8,7) occ(90,8,5) occ(96,8,10) occ(101,8,1) occ(110,8,9) occ(116,8,6) occ(120,8,2) occ(14,9,10) occ(35,9,1) occ(38,9,12) occ(54,9,2) occ(70,9,6) occ(84,9,5) occ(92,9,7) occ(114,9,8) occ(118,9,4) occ(119,9,9) occ(124,9,3) occ(16,10,12) occ(40,10,10) occ(46,10,9) occ(68,10,8) occ(74,10,3) occ(82,10,7) occ(103,10,2) occ(107,10,4) occ(117,10,11) occ(122,10,1) occ(123,10,6) occ(42,11,12) occ(48,11,7) occ(52,11,3) occ(72,11,5) occ(78,11,4) occ(109,11,6) occ(113,11,10) occ(121,11,8) occ(126,11,2) occ(127,11,9) occ(44,12,10) occ(50,12,5) occ(76,12,2) occ(80,12,6) occ(105,12,3) occ(111,12,8) occ(115,12,12) occ(125,12,7) occ(128,12,4) occ(129,12,11)
Optimization: -130
Answer: 12
occ(1,11,11) occ(1,10,5) occ(1,5,8) occ(1,6,7) occ(1,7,1) occ(1,4,11) occ(2,5,6) occ(3,2,10) coverage(131) occ(20,1,5) occ(33,1,8) occ(43,1,3) occ(93,1,6) occ(96,1,9) occ(97,1,2) occ(100,1,11) occ(106,1,10) occ(125,1,4) occ(18,2,7) occ(29,2,5) occ(35,2,6) occ(91,2,8) occ(94,2,11) occ(95,2,4) occ(101,2,3) occ(102,2,9) occ(127,2,2) occ(5,3,12) occ(22,3,6) occ(31,3,7) occ(37,3,8) occ(41,3,4) occ(45,3,2) occ(68,3,5) occ(98,3,10) occ(99,3,1) occ(104,3,11) occ(108,3,9) occ(123,3,3) occ(12,4,10) occ(13,4,7) occ(16,4,8) occ(27,4,4) occ(39,4,6) occ(66,4,3) occ(89,4,9) occ(92,4,12) occ(103,4,2) occ(121,4,5) occ(129,4,1) occ(7,5,11) occ(10,5,12) occ(11,5,9) occ(24,5,5) occ(25,5,2) occ(47,5,1) occ(70,5,4) occ(87,5,7) occ(110,5,10) occ(119,5,3) occ(4,6,8) occ(14,6,9) occ(15,6,6) occ(26,6,3) occ(56,6,4) occ(64,6,2) occ(90,6,11) occ(105,6,1) occ(117,6,5) occ(128,6,10) occ(8,7,11) occ(9,7,10) occ(23,7,3) occ(49,7,2) occ(54,7,6) occ(72,7,5) occ(85,7,8) occ(109,7,4) occ(112,7,9) occ(115,7,7) occ(126,7,12) occ(6,8,9) occ(17,8,5) occ(28,8,4) occ(58,8,3) occ(62,8,1) occ(74,8,7) occ(83,8,10) occ(88,8,12) occ(107,8,2) occ(111,8,6) occ(116,8,8) occ(130,8,11) occ(21,9,2) occ(30,9,6) occ(51,9,1) occ(52,9,7) occ(55,9,3) occ(69,9,4) occ(76,9,5) occ(81,9,12) occ(84,9,9) occ(113,9,8) occ(114,9,10) occ(124,9,11) occ(19,10,4) occ(36,10,8) occ(44,10,12) occ(57,10,1) occ(60,10,2) occ(61,10,3) occ(75,10,6) occ(79,10,10) occ(82,10,7) occ(86,10,11) occ(118,10,9) occ(32,11,7) occ(40,11,9) occ(46,11,10) occ(50,11,6) occ(53,11,2) occ(63,11,1) occ(67,11,5) occ(71,11,3) occ(77,11,8) occ(78,11,4) occ(122,11,12) occ(34,12,9) occ(38,12,7) occ(42,12,11) occ(48,12,8) occ(59,12,2) occ(65,12,3) occ(73,12,5) occ(80,12,6) occ(120,12,10)
Optimization: -131
Answer: 13
occ(1,11,11) occ(1,10,5) occ(1,5,8) occ(1,6,7) occ(1,7,1) occ(1,4,11) occ(2,5,6) occ(3,2,10) coverage(132) occ(15,1,9) occ(21,1,10) occ(24,1,11) occ(69,1,8) occ(73,1,6) occ(77,1,4) occ(87,1,3) occ(91,1,5) occ(95,1,1) occ(102,1,2) occ(7,2,8) occ(18,2,11) occ(19,2,12) occ(22,2,9) occ(65,2,7) occ(79,2,6) occ(85,2,1) occ(93,2,3) occ(100,2,4) occ(108,2,2) occ(117,2,5) occ(13,3,8) occ(17,3,10) occ(23,3,11) occ(26,3,12) occ(67,3,9) occ(71,3,7) occ(75,3,5) occ(83,3,3) occ(89,3,4) occ(97,3,2) occ(98,3,6) occ(104,3,1) occ(5,4,9) occ(9,4,7) occ(16,4,12) occ(20,4,10) occ(63,4,8) occ(81,4,5) occ(106,4,3) occ(110,4,1) occ(115,4,4) occ(119,4,6) occ(131,4,2) occ(6,5,10) occ(11,5,9) occ(25,5,12) occ(28,5,11) occ(88,5,5) occ(96,5,7) occ(99,5,1) occ(113,5,2) occ(121,5,4) occ(127,5,3) occ(4,6,8) occ(14,6,11) occ(27,6,10) occ(58,6,3) occ(61,6,9) occ(92,6,6) occ(111,6,4) occ(112,6,2) occ(125,6,5) occ(129,6,1) occ(8,7,11) occ(29,7,12) occ(30,7,10) occ(51,7,9) occ(56,7,5) occ(86,7,6) occ(90,7,4) occ(94,7,8) occ(101,7,2) occ(107,7,7) occ(123,7,3) occ(12,8,10) occ(32,8,12) occ(47,8,6) occ(53,8,11) occ(54,8,7) occ(59,8,8) occ(60,8,2) occ(74,8,3) occ(103,8,4) occ(109,8,5) occ(114,8,1) occ(130,8,9) occ(10,9,12) occ(31,9,11) occ(45,9,4) occ(49,9,8) occ(52,9,9) occ(57,9,10) occ(66,9,2) occ(72,9,1) occ(76,9,5) occ(84,9,7) occ(105,9,6) occ(116,9,3) occ(34,10,11) occ(35,10,10) occ(43,10,6) occ(44,10,2) occ(50,10,7) occ(55,10,12) occ(62,10,3) occ(68,10,4) occ(82,10,9) occ(118,10,1) occ(128,10,8) occ(33,11,12) occ(38,11,8) occ(39,11,9) occ(42,11,4) occ(48,11,5) occ(64,11,1) occ(70,11,2) occ(78,11,6) occ(120,11,3) occ(124,11,7) occ(36,12,10) occ(37,12,11) occ(40,12,6) occ(41,12,7) occ(46,12,3) occ(80,12,8) occ(122,12,5) occ(126,12,9)
Optimization: -132
Answer: 14
occ(1,11,11) occ(1,10,5) occ(1,5,8) occ(1,6,7) occ(1,7,1) occ(1,4,11) occ(2,5,6) occ(3,2,10) coverage(133) occ(5,1,12) occ(16,1,3) occ(38,1,2) occ(42,1,4) occ(46,1,8) occ(50,1,10) occ(79,1,11) occ(83,1,7) occ(92,1,9) occ(96,1,5) occ(14,2,1) occ(32,2,4) occ(44,2,6) occ(52,2,12) occ(73,2,11) occ(81,2,9) occ(85,2,5) occ(93,2,3) occ(94,2,7) occ(100,2,2) occ(123,2,8) occ(4,3,7) occ(7,3,11) occ(18,3,2) occ(30,3,6) occ(36,3,1) occ(40,3,3) occ(48,3,9) occ(54,3,10) occ(77,3,12) occ(90,3,8) occ(91,3,5) occ(98,3,4) occ(6,4,5) occ(12,4,2) occ(34,4,3) occ(56,4,8) occ(71,4,12) occ(75,4,10) occ(87,4,6) occ(95,4,4) occ(102,4,1) occ(121,4,9) occ(125,4,7) occ(8,5,3) occ(9,5,12) occ(20,5,1) occ(28,5,5) occ(58,5,10) occ(80,5,11) occ(88,5,9) occ(89,5,4) occ(97,5,2) occ(119,5,7) occ(10,6,1) occ(11,6,10) occ(22,6,3) occ(60,6,8) occ(69,6,11) occ(78,6,9) occ(99,6,4) occ(104,6,2) occ(117,6,5) occ(127,6,6) occ(26,7,4) occ(29,7,10) occ(64,7,11) occ(67,7,9) occ(76,7,7) occ(82,7,12) occ(86,7,8) occ(109,7,6) occ(115,7,3) occ(132,7,5) occ(13,8,11) occ(24,8,2) occ(31,8,12) occ(62,8,9) occ(63,8,8) occ(84,8,10) occ(101,8,5) occ(106,8,1) occ(110,8,3) occ(111,8,4) occ(128,8,6) occ(129,8,7) occ(15,9,9) occ(27,9,11) occ(65,9,10) occ(66,9,12) occ(74,9,6) occ(103,9,3) occ(107,9,5) occ(112,9,1) occ(113,9,2) occ(126,9,8) occ(130,9,4) occ(17,10,7) occ(33,10,11) occ(39,10,12) occ(51,10,4) occ(61,10,9) occ(68,10,10) occ(108,10,2) occ(114,10,3) occ(118,10,1) occ(124,10,6) occ(131,10,8) occ(21,11,8) occ(25,11,12) occ(37,11,10) occ(43,11,9) occ(47,11,5) occ(53,11,2) occ(57,11,6) occ(72,11,7) occ(105,11,4) occ(120,11,3) occ(19,12,6) occ(23,12,10) occ(35,12,12) occ(41,12,11) occ(45,12,7) occ(49,12,3) occ(55,12,4) occ(59,12,8) occ(70,12,9) occ(116,12,2) occ(122,12,5)
Optimization: -133
Answer: 15
occ(1,11,11) occ(1,10,5) occ(1,5,8) occ(1,6,7) occ(1,7,1) occ(1,4,11) occ(2,5,6) occ(3,2,10) coverage(134) occ(5,1,12) occ(47,1,11) occ(51,1,7) occ(63,1,9) occ(89,1,2) occ(93,1,6) occ(97,1,10) occ(101,1,8) occ(105,1,4) occ(115,1,1) occ(116,1,5) occ(119,1,3) occ(41,2,11) occ(49,2,9) occ(53,2,5) occ(91,2,4) occ(95,2,8) occ(103,2,6) occ(107,2,2) occ(113,2,3) occ(114,2,7) occ(121,2,1) occ(7,3,11) occ(38,3,4) occ(45,3,12) occ(55,3,7) occ(61,3,8) occ(65,3,10) occ(87,3,1) occ(99,3,9) occ(111,3,5) occ(117,3,2) occ(118,3,6) occ(123,3,3) occ(4,4,4) occ(36,4,2) occ(39,4,12) occ(40,4,6) occ(43,4,10) occ(57,4,5) occ(69,4,7) occ(73,4,9) occ(109,4,3) occ(112,4,8) occ(125,4,1) occ(8,5,1) occ(9,5,12) occ(34,5,4) occ(59,5,7) occ(67,5,9) occ(85,5,2) occ(110,5,10) occ(120,5,5) occ(127,5,3) occ(6,6,3) occ(12,6,4) occ(29,6,9) occ(32,6,2) occ(37,6,11) occ(42,6,5) occ(60,6,6) occ(71,6,8) occ(75,6,10) occ(108,6,12) occ(129,6,1) occ(10,7,2) occ(11,7,11) occ(27,7,7) occ(35,7,9) occ(64,7,5) occ(77,7,8) occ(83,7,3) occ(86,7,10) occ(122,7,6) occ(133,7,4) occ(14,8,3) occ(15,8,10) occ(25,8,9) occ(30,8,1) occ(31,8,8) occ(44,8,4) occ(58,8,5) occ(62,8,7) occ(79,8,6) occ(88,8,12) occ(106,8,11) occ(131,8,2) occ(13,9,12) occ(16,9,1) occ(22,9,2) occ(23,9,7) occ(33,9,10) occ(66,9,6) occ(74,9,8) occ(81,9,4) occ(84,9,11) occ(104,9,9) occ(124,9,5) occ(128,9,3) occ(17,10,9) occ(20,10,4) occ(28,10,2) occ(46,10,3) occ(56,10,6) occ(68,10,8) occ(80,10,12) occ(90,10,11) occ(96,10,10) occ(102,10,7) occ(130,10,1) occ(18,11,2) occ(21,11,6) occ(24,11,3) occ(48,11,1) occ(52,11,5) occ(72,11,7) occ(76,11,9) occ(82,11,10) occ(94,11,12) occ(98,11,8) occ(126,11,4) occ(19,12,8) occ(26,12,1) occ(50,12,3) occ(54,12,7) occ(70,12,9) occ(78,12,11) occ(92,12,10) occ(100,12,6) occ(132,12,2)
Optimization: -134
*** Info : (clingo): INTERRUPTED by signal!
SATISFIABLE

TIME LIMIT   : 1
Models       : 15+
  Optimum    : unknown
Optimization : -134
Calls        : 1
Time         : 300.000s (Solving: 294.94s 1st Model: 0.01s Unsat: 0.00s)
CPU Time     : 300.003s
